Cu13 C1 O1 
1.0
1.5000000000000000e+01 0.0000000000000000e+00 0.0000000000000000e+00 
0.0000000000000000e+00 1.5000000000000000e+01 0.0000000000000000e+00 
0.0000000000000000e+00 0.0000000000000000e+00 1.5000000000000000e+01 
Cu C O 
13 1 1 
cartesian
   4.4170900000    6.3233000000    8.3786800000
   5.5446700000    8.1404400000    7.3259700000
   5.8540700000    4.4099600000    8.3545200000
   7.9248500000    7.5955900000    7.2370800000
   8.2111500000    5.2224500000    7.9612700000
   6.7600100000    6.5098800000    9.2099800000
   6.3179300000    5.9479600000    6.6082700000
   3.2980800000    8.4724300000    8.3351000000
   5.0771400000    8.2067500000    9.8493900000
   5.3652000000   10.2202000000    8.4850900000
   7.3284800000    9.9501700000    7.1710400000
   9.3887100000    7.3557200000    9.1457500000
   7.2667800000    8.8708300000    9.2031500000
  11.0967000000    7.5730000000    9.8073400000
  12.2545000000    7.5738600000    9.8940000000
