Cu13 C1 O1 
1.0
1.5000000000000000e+01 0.0000000000000000e+00 0.0000000000000000e+00 
0.0000000000000000e+00 1.5000000000000000e+01 0.0000000000000000e+00 
0.0000000000000000e+00 0.0000000000000000e+00 1.5000000000000000e+01 
Cu C O 
13 1 1 
cartesian
   4.3055800000    6.3540800000    8.4176600000
   5.7155300000    8.1816800000    7.4546800000
   5.8512200000    4.3691300000    8.4760200000
   8.1427200000    7.6011500000    7.0923500000
   8.2854100000    5.2798200000    7.8365200000
   6.6370500000    6.5745400000    9.0897800000
   6.2049700000    6.0673500000    6.7453900000
   3.3922600000    8.5414800000    8.0391500000
   4.9230400000    8.1586400000    9.9192800000
   5.2418800000   10.1318000000    8.6152400000
   7.2026800000   10.0641000000    7.2162600000
   9.3932000000    7.2453900000    9.1423100000
   7.4252200000    8.7616800000    9.3173200000
  11.1889000000    7.1936100000    9.5219000000
  12.3179000000    7.4415200000    9.7242200000
