Cu13 C1 O1 
1.0
1.5000000000000000e+01 0.0000000000000000e+00 0.0000000000000000e+00 
0.0000000000000000e+00 1.5000000000000000e+01 0.0000000000000000e+00 
0.0000000000000000e+00 0.0000000000000000e+00 1.5000000000000000e+01 
Cu C O 
13 1 1 
cartesian
   4.3904700000    6.2847200000    8.3715200000
   5.6202700000    8.1612000000    7.3872200000
   5.9179700000    4.3737500000    8.3644900000
   7.9796100000    7.5473000000    7.2539800000
   8.1910800000    5.1970000000    7.9746700000
   6.7286400000    6.5998800000    9.2062400000
   6.1989400000    6.0279800000    6.6130900000
   3.3954900000    8.4887300000    8.3025200000
   5.0198500000    8.1770000000    9.9383100000
   5.2587300000   10.2693000000    8.5169700000
   7.2953300000    9.9321300000    7.1087500000
   9.5096200000    7.3681200000    9.0106500000
   7.2337400000    8.8556400000    9.2119000000
  11.1589000000    7.4038900000    9.6449500000
  12.2650000000    7.4744500000   10.0356000000
