Cu13 C1 O1 
1.0
1.5000000000000000e+01 0.0000000000000000e+00 0.0000000000000000e+00 
0.0000000000000000e+00 1.5000000000000000e+01 0.0000000000000000e+00 
0.0000000000000000e+00 0.0000000000000000e+00 1.5000000000000000e+01 
Cu C O 
13 1 1 
cartesian
   4.3611100000    6.2188600000    8.4252100000
   5.6594100000    8.1899800000    7.4000400000
   5.9438200000    4.3661600000    8.4664600000
   7.9144400000    7.6242100000    7.2328900000
   8.1397900000    5.2669100000    7.8980900000
   6.7353200000    6.5107500000    9.1515300000
   6.2456800000    5.9440900000    6.5911000000
   3.3235700000    8.5347700000    8.3311700000
   4.9700200000    8.2619800000    9.8550500000
   5.3627900000   10.1796000000    8.5308900000
   7.3172300000    9.9521500000    7.1555100000
   9.4508100000    7.3261300000    8.9558500000
   7.2840100000    8.8684600000    9.2797700000
  11.2353000000    7.3563700000    9.7214200000
  12.3338000000    7.6635600000    9.9257000000
