Cu13 C1 O1 
1.0
1.5000000000000000e+01 0.0000000000000000e+00 0.0000000000000000e+00 
0.0000000000000000e+00 1.5000000000000000e+01 0.0000000000000000e+00 
0.0000000000000000e+00 0.0000000000000000e+00 1.5000000000000000e+01 
Cu C O 
13 1 1 
cartesian
   4.3874200000    6.2169600000    8.3530000000
   5.5933100000    8.1807800000    7.4202000000
   5.8695300000    4.4000600000    8.4159900000
   8.0183000000    7.5921200000    7.2384300000
   8.2059800000    5.1993800000    7.9404600000
   6.6998900000    6.5787600000    9.2334700000
   6.2712700000    6.0025800000    6.6584300000
   3.3492600000    8.4741600000    8.3281400000
   5.0361700000    8.1657400000    9.8978900000
   5.2656500000   10.2296000000    8.5323900000
   7.2741600000    9.9158300000    7.0951800000
   9.4780500000    7.3668000000    8.9193400000
   7.2944000000    8.9277400000    9.1954000000
  11.1531000000    7.4495300000    9.7260900000
  12.2549000000    7.5679700000   10.1018000000
