Cu13 C1 O1 
1.0
1.5000000000000000e+01 0.0000000000000000e+00 0.0000000000000000e+00 
0.0000000000000000e+00 1.5000000000000000e+01 0.0000000000000000e+00 
0.0000000000000000e+00 0.0000000000000000e+00 1.5000000000000000e+01 
Cu C O 
13 1 1 
cartesian
   4.4752400000    6.2952600000    8.3637800000
   5.5693000000    8.2022100000    7.3469300000
   5.9287200000    4.3462700000    8.4125000000
   7.9552500000    7.6553300000    7.1979000000
   8.2103900000    5.2360400000    8.0046000000
   6.7547800000    6.5767300000    9.2456500000
   6.2935000000    6.0184800000    6.7393500000
   3.3663000000    8.4684600000    8.1661800000
   5.0483900000    8.1689700000    9.8426000000
   5.2430600000   10.2301000000    8.5627100000
   7.3361500000    9.9415600000    7.1615000000
   9.3695000000    7.2206700000    8.9806300000
   7.2366500000    8.9608700000    9.2666700000
  11.0226000000    7.3526900000    9.7589600000
  12.1788000000    7.3613000000    9.8282700000
