Cu13 C1 O1 
1.0
1.5000000000000000e+01 0.0000000000000000e+00 0.0000000000000000e+00 
0.0000000000000000e+00 1.5000000000000000e+01 0.0000000000000000e+00 
0.0000000000000000e+00 0.0000000000000000e+00 1.5000000000000000e+01 
Cu C O 
13 1 1 
cartesian
   4.3946200000    6.2721700000    8.3761200000
   5.6536700000    8.1695700000    7.4385900000
   5.9207300000    4.3977800000    8.3767600000
   8.0344600000    7.5522100000    7.2335900000
   8.1899800000    5.2049600000    8.0079600000
   6.6803500000    6.6042700000    9.1896000000
   6.2266900000    5.9647400000    6.6194800000
   3.3433500000    8.4765000000    8.2355000000
   4.9771600000    8.1929200000    9.9166300000
   5.3174600000   10.2577000000    8.5302300000
   7.2449000000    9.9427400000    7.0989200000
   9.4773200000    7.3283300000    9.0143700000
   7.2831700000    8.9054800000    9.2450800000
  11.1421000000    7.4445600000    9.6561500000
  12.2613000000    7.4969200000    9.9377900000
