Cu13 C1 O1 
1.0
1.5000000000000000e+01 0.0000000000000000e+00 0.0000000000000000e+00 
0.0000000000000000e+00 1.5000000000000000e+01 0.0000000000000000e+00 
0.0000000000000000e+00 0.0000000000000000e+00 1.5000000000000000e+01 
Cu C O 
13 1 1 
cartesian
   4.3444300000    6.3117100000    8.2914200000
   5.7003700000    8.1909400000    7.3954300000
   5.9174700000    4.3169600000    8.4814200000
   8.0505600000    7.5940600000    7.2102100000
   8.2721800000    5.2169900000    7.9327100000
   6.7049000000    6.5517900000    9.1121200000
   6.2804300000    5.9117500000    6.8148800000
   3.3944200000    8.5930100000    8.1965900000
   5.0648400000    8.2112100000    9.7514200000
   5.2713700000   10.2835000000    8.5981500000
   7.3451200000   10.0652000000    7.1310800000
   9.1593000000    7.1229200000    9.2904500000
   7.3066100000    8.9500600000    9.2305900000
  10.9795000000    7.2573000000    9.5475500000
  12.1127000000    7.4361200000    9.4090900000
