Cu13 C1 O1 
1.0
1.5000000000000000e+01 0.0000000000000000e+00 0.0000000000000000e+00 
0.0000000000000000e+00 1.5000000000000000e+01 0.0000000000000000e+00 
0.0000000000000000e+00 0.0000000000000000e+00 1.5000000000000000e+01 
Cu C O 
13 1 1 
cartesian
   4.3469300000    6.2563100000    8.2787800000
   5.6352500000    8.2368100000    7.3293100000
   5.9467200000    4.3754600000    8.5173300000
   8.0526100000    7.6499600000    7.1954200000
   8.2111800000    5.1874100000    7.9105100000
   6.7676800000    6.6014400000    9.2300900000
   6.2207800000    5.9922300000    6.7171300000
   3.4069100000    8.5583300000    8.2132400000
   4.9928700000    8.1608200000    9.8360300000
   5.2105200000   10.2665000000    8.5968100000
   7.3361500000    9.9856200000    7.1741900000
   9.3548000000    7.1682800000    9.1466400000
   7.2567400000    8.8940700000    9.2002500000
  11.1348000000    7.2586700000    9.6146600000
  12.2855000000    7.3828200000    9.7191500000
