Cu13 C1 O1 
1.0
1.5000000000000000e+01 0.0000000000000000e+00 0.0000000000000000e+00 
0.0000000000000000e+00 1.5000000000000000e+01 0.0000000000000000e+00 
0.0000000000000000e+00 0.0000000000000000e+00 1.5000000000000000e+01 
Cu C O 
13 1 1 
cartesian
   4.3563300000    6.2465000000    8.2517900000
   5.5036000000    8.2889100000    7.4530900000
   5.9772000000    4.4013100000    8.4387300000
   7.8597100000    7.6237900000    7.2023900000
   8.3336900000    5.3101200000    7.8786800000
   6.7635300000    6.5381800000    9.0959700000
   6.2403100000    5.8904900000    6.6273500000
   3.4042500000    8.4615100000    8.2912000000
   5.0784400000    8.1576300000   10.0126000000
   5.3824700000   10.3092000000    8.7089300000
   7.2752200000    9.9201700000    7.0183200000
   9.3821500000    7.2990800000    9.0330900000
   7.2404100000    8.9001200000    9.1877200000
  11.0183000000    7.4104200000    9.8405500000
  12.1420000000    7.2141300000   10.1291000000
