Cu13 C1 O1 
1.0
1.5000000000000000e+01 0.0000000000000000e+00 0.0000000000000000e+00 
0.0000000000000000e+00 1.5000000000000000e+01 0.0000000000000000e+00 
0.0000000000000000e+00 0.0000000000000000e+00 1.5000000000000000e+01 
Cu C O 
13 1 1 
cartesian
   4.3848700000    6.2963800000    8.4008300000
   5.6690200000    8.1832500000    7.3485400000
   5.9169300000    4.3756600000    8.3787900000
   8.0068200000    7.5423000000    7.1707500000
   8.1847800000    5.1806100000    7.9884000000
   6.7097400000    6.6335600000    9.2204900000
   6.2414100000    5.9929200000    6.5939600000
   3.3530100000    8.4515600000    8.2928900000
   4.9708900000    8.1851600000    9.9618000000
   5.2802000000   10.2561000000    8.5653100000
   7.2851500000    9.9996900000    7.0531500000
   9.4925300000    7.2950400000    9.0184100000
   7.2100900000    8.8648300000    9.2309800000
  11.2189000000    7.4044600000    9.8445900000
  12.3563000000    7.5759600000   10.0288000000
