Cu13 C1 O1 
1.0
1.5000000000000000e+01 0.0000000000000000e+00 0.0000000000000000e+00 
0.0000000000000000e+00 1.5000000000000000e+01 0.0000000000000000e+00 
0.0000000000000000e+00 0.0000000000000000e+00 1.5000000000000000e+01 
Cu C O 
13 1 1 
cartesian
   4.3760200000    6.3304800000    8.3082300000
   5.6400400000    8.1974400000    7.3709700000
   5.8584500000    4.3596000000    8.4584700000
   8.0619100000    7.5457500000    7.2743100000
   8.1885000000    5.1758100000    7.9307900000
   6.6477800000    6.5650000000    9.2759100000
   6.2945000000    6.0179000000    6.6665300000
   3.3708200000    8.5164700000    8.1874100000
   5.0724200000    8.1728900000    9.8426200000
   5.2652300000   10.2796000000    8.5177000000
   7.2587500000    9.9252800000    7.0976500000
   9.4633600000    7.2109500000    9.1095900000
   7.2288200000    8.9521700000    9.2742100000
  11.1583000000    7.4666100000    9.7242800000
  12.3177000000    7.5600400000    9.7612600000
