Cu13 C1 O1 
1.0
1.5000000000000000e+01 0.0000000000000000e+00 0.0000000000000000e+00 
0.0000000000000000e+00 1.5000000000000000e+01 0.0000000000000000e+00 
0.0000000000000000e+00 0.0000000000000000e+00 1.5000000000000000e+01 
Cu C O 
13 1 1 
cartesian
   4.3438000000    6.2917200000    8.3009800000
   5.6699600000    8.1999900000    7.3778800000
   5.9003300000    4.4329500000    8.4151300000
   8.0371400000    7.5646400000    7.2047800000
   8.2468500000    5.1513700000    7.9770500000
   6.6776100000    6.5178100000    9.1686400000
   6.2811400000    6.0205300000    6.6453700000
   3.3542500000    8.4986100000    8.2624300000
   4.9881000000    8.1939400000    9.9034800000
   5.3173000000   10.2702000000    8.5118500000
   7.3160100000    9.9644800000    7.1443900000
   9.4081800000    7.3058800000    9.1156800000
   7.2142200000    8.8503600000    9.2777300000
  11.1179000000    7.4353200000    9.7099600000
  12.2358000000    7.5313600000    9.8078500000
