Cu13 C1 O1 
1.0
1.5000000000000000e+01 0.0000000000000000e+00 0.0000000000000000e+00 
0.0000000000000000e+00 1.5000000000000000e+01 0.0000000000000000e+00 
0.0000000000000000e+00 0.0000000000000000e+00 1.5000000000000000e+01 
Cu C O 
13 1 1 
cartesian
   4.3606500000    6.3051700000    8.2899300000
   5.6564500000    8.2105000000    7.3217800000
   5.9696400000    4.3976400000    8.4982200000
   7.9913400000    7.5799500000    7.2318700000
   8.2403600000    5.1759200000    7.9796200000
   6.7267100000    6.5584500000    9.2283800000
   6.2812100000    5.9843900000    6.7344700000
   3.4012000000    8.5121300000    8.1829900000
   4.9749600000    8.1966700000    9.8153900000
   5.3122300000   10.3001000000    8.5043500000
   7.3002700000   10.0087000000    7.1491300000
   9.2993700000    7.2317400000    9.1577100000
   7.2650100000    8.8602600000    9.2740500000
  11.0473000000    7.3913900000    9.6959900000
  12.1914000000    7.3292000000    9.5701600000
