Cu13 C1 O1 
1.0
1.5000000000000000e+01 0.0000000000000000e+00 0.0000000000000000e+00 
0.0000000000000000e+00 1.5000000000000000e+01 0.0000000000000000e+00 
0.0000000000000000e+00 0.0000000000000000e+00 1.5000000000000000e+01 
Cu C O 
13 1 1 
cartesian
   4.3873100000    6.3138900000    8.2746800000
   5.5380500000    8.1941800000    7.3918300000
   5.9038500000    4.3419500000    8.4209500000
   7.9821300000    7.6371700000    7.1512000000
   8.2338900000    5.2422800000    7.8842400000
   6.7932500000    6.5057300000    9.1763900000
   6.2987600000    5.9753400000    6.7689600000
   3.3796500000    8.6501800000    8.3881900000
   5.1436400000    8.1412600000    9.8822000000
   5.2870300000   10.2655000000    8.5583200000
   7.2106300000    9.9260400000    7.0807700000
   9.3297600000    7.1785900000    9.0869300000
   7.3160000000    8.8649800000    9.1744400000
  11.0136000000    7.4513400000    9.7657200000
  12.1191000000    7.6201300000   10.0293000000
