Cu13 C1 O1 
1.0
1.5000000000000000e+01 0.0000000000000000e+00 0.0000000000000000e+00 
0.0000000000000000e+00 1.5000000000000000e+01 0.0000000000000000e+00 
0.0000000000000000e+00 0.0000000000000000e+00 1.5000000000000000e+01 
Cu C O 
13 1 1 
cartesian
   4.3744000000    6.2723200000    8.3701600000
   5.6549200000    8.1412600000    7.3909900000
   5.9451700000    4.4130300000    8.3527200000
   8.0164300000    7.5844500000    7.2190300000
   8.2319100000    5.2832500000    7.9517900000
   6.6443700000    6.5592400000    9.1695500000
   6.2228500000    5.9502400000    6.6876600000
   3.3857300000    8.4934600000    8.2979400000
   4.9673900000    8.2195900000    9.9698800000
   5.2567200000   10.2554000000    8.5668400000
   7.3034400000    9.9398700000    7.1018700000
   9.4892900000    7.3056200000    8.9389400000
   7.2478800000    8.8420600000    9.2299500000
  11.1564000000    7.4415100000    9.7585600000
  12.2639000000    7.5375300000   10.0020000000
