Cu13 C1 O1 
1.0
1.5000000000000000e+01 0.0000000000000000e+00 0.0000000000000000e+00 
0.0000000000000000e+00 1.5000000000000000e+01 0.0000000000000000e+00 
0.0000000000000000e+00 0.0000000000000000e+00 1.5000000000000000e+01 
Cu C O 
13 1 1 
cartesian
   4.3351900000    6.2961000000    8.3906000000
   5.6541000000    8.2322300000    7.3627200000
   5.9554000000    4.3810200000    8.4259200000
   8.0516500000    7.5654900000    7.2113500000
   8.2304300000    5.2018300000    7.9244800000
   6.6801900000    6.5723800000    9.2268300000
   6.2434400000    6.0278000000    6.6834700000
   3.3634800000    8.4948800000    8.1719600000
   5.0453300000    8.1989400000    9.8137600000
   5.2856400000   10.2595000000    8.5830500000
   7.3115300000    9.9783000000    7.1524300000
   9.3071800000    7.2068200000    9.1127800000
   7.3221200000    8.8584700000    9.2380000000
  11.0260000000    7.4335700000    9.7428500000
  12.1824000000    7.4878200000    9.8151000000
