Cu13 C1 O1 
1.0
1.5000000000000000e+01 0.0000000000000000e+00 0.0000000000000000e+00 
0.0000000000000000e+00 1.5000000000000000e+01 0.0000000000000000e+00 
0.0000000000000000e+00 0.0000000000000000e+00 1.5000000000000000e+01 
Cu C O 
13 1 1 
cartesian
   4.4061600000    6.3698700000    8.2173300000
   5.6211700000    8.2963000000    7.2910100000
   5.9021900000    4.3074300000    8.4594100000
   7.9942700000    7.5842400000    7.2567400000
   8.2472100000    5.1818500000    8.0003100000
   6.7997900000    6.5239100000    9.1904300000
   6.2215100000    6.0108500000    6.7289900000
   3.4073200000    8.6658000000    8.2324900000
   5.0798200000    8.1057500000    9.8250000000
   5.3495800000   10.2121000000    8.6934500000
   7.3260000000    9.9762800000    7.0655000000
   9.1557600000    7.1487900000    9.2495300000
   7.3219900000    8.8599600000    9.1836700000
  10.9476000000    7.3414100000    9.5833300000
  12.0543000000    7.6784800000    9.5515200000
