Cu13 C1 O1 
1.0
1.5000000000000000e+01 0.0000000000000000e+00 0.0000000000000000e+00 
0.0000000000000000e+00 1.5000000000000000e+01 0.0000000000000000e+00 
0.0000000000000000e+00 0.0000000000000000e+00 1.5000000000000000e+01 
Cu C O 
13 1 1 
cartesian
   4.3400600000    6.2563700000    8.2953500000
   5.6421000000    8.2323800000    7.3329700000
   5.9419500000    4.3857100000    8.4919600000
   8.0474400000    7.6441100000    7.1939100000
   8.2135200000    5.1701500000    7.9266400000
   6.7315900000    6.5876100000    9.2345300000
   6.2310900000    5.9886700000    6.6904400000
   3.4172300000    8.5343000000    8.2263800000
   4.9727300000    8.1700900000    9.8533300000
   5.2426800000   10.2664000000    8.5748600000
   7.3230100000    9.9821400000    7.1656400000
   9.3838500000    7.1986600000    9.1376100000
   7.2590500000    8.9008100000    9.2133100000
  11.1136000000    7.3353300000    9.6566800000
  12.2731000000    7.3880700000    9.7225500000
