Cu13 C1 O1 
1.0
1.5000000000000000e+01 0.0000000000000000e+00 0.0000000000000000e+00 
0.0000000000000000e+00 1.5000000000000000e+01 0.0000000000000000e+00 
0.0000000000000000e+00 0.0000000000000000e+00 1.5000000000000000e+01 
Cu C O 
13 1 1 
cartesian
   4.2701600000    6.2724300000    8.2694900000
   5.5939500000    8.2730500000    7.2786300000
   5.9460200000    4.3058300000    8.4768000000
   8.0114600000    7.5557200000    7.2910900000
   8.1402200000    5.2027500000    7.8699900000
   6.5886800000    6.5397900000    9.2835700000
   6.2390900000    6.0053600000    6.7414900000
   3.4712400000    8.5986800000    8.1413500000
   4.9931800000    8.2459600000    9.7677500000
   5.3550100000   10.2341000000    8.5051100000
   7.4442300000   10.0643000000    7.2672100000
   9.3562100000    7.1876000000    9.1797200000
   7.3258900000    8.8074400000    9.3341200000
  11.1959000000    7.1628400000    9.5289900000
  12.2547000000    7.6147000000    9.5428200000
