Cu13 C1 O1 
1.0
1.5000000000000000e+01 0.0000000000000000e+00 0.0000000000000000e+00 
0.0000000000000000e+00 1.5000000000000000e+01 0.0000000000000000e+00 
0.0000000000000000e+00 0.0000000000000000e+00 1.5000000000000000e+01 
Cu C O 
13 1 1 
cartesian
   4.3888300000    6.3395100000    8.4600800000
   5.5369300000    8.3352700000    7.3451300000
   5.9840200000    4.2807700000    8.3103200000
   7.9600000000    7.6009600000    7.1902400000
   8.2984400000    5.2852600000    7.7062500000
   6.7675600000    6.3667500000    9.1675600000
   6.1157800000    6.1168000000    6.8331600000
   3.3403200000    8.7044500000    8.4075800000
   5.0888200000    8.0515700000    9.8916300000
   5.2230200000   10.2532000000    8.5755400000
   7.3845200000    9.8896300000    7.1467000000
   9.3892700000    7.1654300000    9.0580900000
   7.2869100000    8.7976300000    9.2568700000
  11.0906000000    7.5088400000    9.6548500000
  12.2184000000    7.7747800000    9.6755000000
