Cu13 C1 O1 
1.0
1.5000000000000000e+01 0.0000000000000000e+00 0.0000000000000000e+00 
0.0000000000000000e+00 1.5000000000000000e+01 0.0000000000000000e+00 
0.0000000000000000e+00 0.0000000000000000e+00 1.5000000000000000e+01 
Cu C O 
13 1 1 
cartesian
   4.3276300000    6.2443000000    8.3874500000
   5.5874600000    8.1803000000    7.4839200000
   5.9327300000    4.3658800000    8.4226800000
   8.0231100000    7.6114000000    7.2042900000
   8.1428000000    5.2895200000    8.0143700000
   6.7030600000    6.5834800000    9.2203000000
   6.1897300000    6.0176300000    6.6015400000
   3.3736800000    8.4186300000    8.3123200000
   5.0761000000    8.1722900000    9.8853500000
   5.3438300000   10.2352000000    8.4887700000
   7.1843300000    9.9522100000    7.0446800000
   9.6088500000    7.3199000000    8.9236700000
   7.2280100000    8.8378800000    9.2125200000
  11.1980000000    7.4770000000    9.8710100000
  12.3089000000    7.6344700000   10.0981000000
