Cu13 C1 O1 
1.0
1.5000000000000000e+01 0.0000000000000000e+00 0.0000000000000000e+00 
0.0000000000000000e+00 1.5000000000000000e+01 0.0000000000000000e+00 
0.0000000000000000e+00 0.0000000000000000e+00 1.5000000000000000e+01 
Cu C O 
13 1 1 
cartesian
   4.3925000000    6.3118500000    8.3716500000
   5.6470800000    8.2199000000    7.3796200000
   5.9199000000    4.3525300000    8.4565900000
   8.0776400000    7.5798800000    7.2132100000
   8.2351000000    5.1635700000    7.9261200000
   6.6648800000    6.5884800000    9.2123000000
   6.2371900000    5.9839900000    6.6308700000
   3.3582000000    8.4791800000    8.2285000000
   4.9581400000    8.1780600000    9.8525200000
   5.2752400000   10.2876000000    8.5344900000
   7.3182100000   10.0151000000    7.1759300000
   9.3913500000    7.2583700000    9.0894700000
   7.2645400000    8.8803000000    9.2514200000
  11.1201000000    7.3250600000    9.7753500000
  12.2933000000    7.4699200000    9.6900200000
