Cu13 C1 O1 
1.0
1.5000000000000000e+01 0.0000000000000000e+00 0.0000000000000000e+00 
0.0000000000000000e+00 1.5000000000000000e+01 0.0000000000000000e+00 
0.0000000000000000e+00 0.0000000000000000e+00 1.5000000000000000e+01 
Cu C O 
13 1 1 
cartesian
   4.3168100000    6.2569100000    8.3301500000
   5.6972600000    8.2216400000    7.3526600000
   5.9315300000    4.4258700000    8.5303400000
   7.9865500000    7.5655900000    7.2482500000
   8.2941800000    5.2177400000    7.9674300000
   6.7404000000    6.5137600000    9.1422800000
   6.2371300000    5.9533200000    6.7428100000
   3.4318200000    8.6486000000    8.1149000000
   5.0854100000    8.1889800000    9.7934400000
   5.2840900000   10.2837000000    8.5409500000
   7.3383500000    9.9831800000    7.1374800000
   9.1852400000    7.1297500000    9.2717000000
   7.3009000000    8.9155200000    9.2145100000
  10.9376000000    7.3399900000    9.6612700000
  12.0740000000    7.4358800000    9.5206500000
