Cu13 C1 O1 
1.0
1.5000000000000000e+01 0.0000000000000000e+00 0.0000000000000000e+00 
0.0000000000000000e+00 1.5000000000000000e+01 0.0000000000000000e+00 
0.0000000000000000e+00 0.0000000000000000e+00 1.5000000000000000e+01 
Cu C O 
13 1 1 
cartesian
   4.3752900000    6.2782300000    8.2551800000
   5.6544300000    8.2168600000    7.3723800000
   5.9336800000    4.3885800000    8.4387500000
   8.0256700000    7.5873800000    7.2504500000
   8.2413000000    5.1590300000    7.9610400000
   6.7295700000    6.5758100000    9.1613400000
   6.2292500000    6.0139600000    6.7723400000
   3.3900600000    8.5588300000    8.2036600000
   5.0407900000    8.1810300000    9.7693200000
   5.2708700000   10.3080000000    8.5785500000
   7.3559800000   10.0636000000    7.1618000000
   9.2357100000    7.1268400000    9.2086800000
   7.3201200000    8.8686000000    9.2536100000
  10.9970000000    7.3549300000    9.5692700000
  12.1366000000    7.3364100000    9.5888500000
