Cu13 C1 O1 
1.0
1.5000000000000000e+01 0.0000000000000000e+00 0.0000000000000000e+00 
0.0000000000000000e+00 1.5000000000000000e+01 0.0000000000000000e+00 
0.0000000000000000e+00 0.0000000000000000e+00 1.5000000000000000e+01 
Cu C O 
13 1 1 
cartesian
   4.3324800000    6.2416200000    8.3167000000
   5.6185200000    8.2343600000    7.4080800000
   5.9445300000    4.3654300000    8.4101300000
   8.0108500000    7.5432000000    7.1739500000
   8.2054500000    5.2768400000    7.9541600000
   6.7449300000    6.5359700000    9.2065200000
   6.2577500000    5.9994900000    6.7005900000
   3.3367800000    8.5559400000    8.2786500000
   5.0285000000    8.1307700000    9.8799900000
   5.2962600000   10.2356000000    8.4914700000
   7.2932000000    9.9627400000    7.1786500000
   9.4253200000    7.2990500000    9.0490600000
   7.2259900000    8.9174400000    9.2925100000
  11.1843000000    7.3242500000    9.5877800000
  12.3223000000    7.4719500000    9.7602000000
