Cu13 C1 O1 
1.0
1.5000000000000000e+01 0.0000000000000000e+00 0.0000000000000000e+00 
0.0000000000000000e+00 1.5000000000000000e+01 0.0000000000000000e+00 
0.0000000000000000e+00 0.0000000000000000e+00 1.5000000000000000e+01 
Cu C O 
13 1 1 
cartesian
   4.2992400000    6.2473400000    8.3469000000
   5.6880300000    8.2178400000    7.3956300000
   5.9008300000    4.4211300000    8.4363000000
   8.0225000000    7.5479600000    7.1627100000
   8.2687200000    5.1690800000    7.9784200000
   6.7184900000    6.6201400000    9.1780600000
   6.2515100000    5.9539800000    6.6210500000
   3.3732900000    8.5209300000    8.2372900000
   4.9625100000    8.1602900000    9.8991400000
   5.2729400000   10.2829000000    8.4862900000
   7.2839700000    9.9670000000    7.1854800000
   9.3612800000    7.2970500000    9.1121200000
   7.3207200000    8.8810600000    9.2706700000
  11.1751000000    7.3351900000    9.7703700000
  12.3153000000    7.5101100000    9.7439100000
