Cu13 C1 O1 
1.0
1.5000000000000000e+01 0.0000000000000000e+00 0.0000000000000000e+00 
0.0000000000000000e+00 1.5000000000000000e+01 0.0000000000000000e+00 
0.0000000000000000e+00 0.0000000000000000e+00 1.5000000000000000e+01 
Cu C O 
13 1 1 
cartesian
   4.3547300000    6.2722400000    8.2690000000
   5.7005300000    8.2440200000    7.3712400000
   5.9291900000    4.3727300000    8.4885900000
   7.9823300000    7.6096600000    7.2272000000
   8.2338600000    5.2252200000    7.9648700000
   6.6951100000    6.5258500000    9.2100800000
   6.2646800000    5.9754200000    6.7517600000
   3.4133100000    8.5229000000    8.1790200000
   4.9941600000    8.1779300000    9.8000400000
   5.2615300000   10.3134000000    8.5078000000
   7.3286300000    9.9849200000    7.2084900000
   9.3177500000    7.1705200000    9.1460200000
   7.3037200000    8.9168200000    9.2366600000
  11.0343000000    7.4471600000    9.6529600000
  12.2006000000    7.3271700000    9.6306500000
