Cu13 C1 O1 
1.0
1.5000000000000000e+01 0.0000000000000000e+00 0.0000000000000000e+00 
0.0000000000000000e+00 1.5000000000000000e+01 0.0000000000000000e+00 
0.0000000000000000e+00 0.0000000000000000e+00 1.5000000000000000e+01 
Cu C O 
13 1 1 
cartesian
   4.4837500000    6.3534300000    8.3907700000
   5.5623900000    8.2597000000    7.3550000000
   5.9125300000    4.3160000000    8.2662500000
   7.9372600000    7.4792700000    7.2768700000
   8.1795100000    5.1379100000    7.9106700000
   6.8857400000    6.5228900000    9.2253000000
   6.0721400000    6.0382900000    6.6060900000
   3.4114300000    8.6421100000    8.3556100000
   5.1403900000    8.1588300000    9.8662300000
   5.1479800000   10.2935000000    8.4783200000
   7.3685800000    9.8549100000    7.1896800000
   9.3914700000    7.4493400000    9.1328100000
   7.2394500000    8.8521300000    9.2004200000
  11.1449000000    7.3858200000    9.7982400000
  12.3039000000    7.1878000000    9.9456000000
