Cu13 C1 O1 
1.0
1.5000000000000000e+01 0.0000000000000000e+00 0.0000000000000000e+00 
0.0000000000000000e+00 1.5000000000000000e+01 0.0000000000000000e+00 
0.0000000000000000e+00 0.0000000000000000e+00 1.5000000000000000e+01 
Cu C O 
13 1 1 
cartesian
   4.4144500000    6.1696200000    8.5440900000
   5.6006900000    8.1366200000    7.4317300000
   6.0272000000    4.2792800000    8.3291800000
   7.9586000000    7.6972700000    7.1232300000
   8.3458100000    5.3362900000    7.9396600000
   6.7013100000    6.4915800000    9.1696500000
   6.3294900000    5.9457700000    6.6565100000
   3.2951600000    8.4818200000    8.3595100000
   5.0030100000    8.0608200000    9.8358900000
   5.1972000000   10.1512000000    8.5774900000
   7.1715200000   10.0269000000    7.1126200000
   9.4970300000    7.4340500000    8.8833300000
   7.2816900000    8.9675400000    9.1871000000
  10.9970000000    7.7109600000    9.8409800000
  12.0554000000    7.6568200000   10.3267000000
