Cu13 C1 O1 
1.0
1.5000000000000000e+01 0.0000000000000000e+00 0.0000000000000000e+00 
0.0000000000000000e+00 1.5000000000000000e+01 0.0000000000000000e+00 
0.0000000000000000e+00 0.0000000000000000e+00 1.5000000000000000e+01 
Cu C O 
13 1 1 
cartesian
   4.3265300000    6.3022300000    8.3905000000
   5.5796000000    8.1459100000    7.3790000000
   5.9253600000    4.4432700000    8.4322200000
   7.9578300000    7.5850300000    7.1742600000
   8.2211100000    5.1949300000    7.9936500000
   6.7505300000    6.5798300000    9.2328700000
   6.2404200000    5.9585200000    6.6505400000
   3.3548400000    8.4394500000    8.3011500000
   4.9865100000    8.1843600000    9.9065400000
   5.3399400000   10.2913000000    8.5400700000
   7.2913600000    9.9473500000    7.0711300000
   9.5581900000    7.3302400000    8.9714600000
   7.2266000000    8.8573900000    9.1878000000
  11.1865000000    7.3350900000    9.6490700000
  12.1686000000    7.6172400000   10.1482000000
