Cu13 C1 O1 
1.0
1.5000000000000000e+01 0.0000000000000000e+00 0.0000000000000000e+00 
0.0000000000000000e+00 1.5000000000000000e+01 0.0000000000000000e+00 
0.0000000000000000e+00 0.0000000000000000e+00 1.5000000000000000e+01 
Cu C O 
13 1 1 
cartesian
   4.2854000000    6.2413800000    8.3542700000
   5.5665200000    8.1442600000    7.3165800000
   5.8276000000    4.3254200000    8.6208100000
   7.9803100000    7.6148400000    7.3009200000
   8.2696200000    5.2508100000    7.9373800000
   6.7205600000    6.5462300000    9.0803900000
   6.2243400000    5.9092700000    6.7809900000
   3.4262500000    8.7407500000    8.1286900000
   5.1239500000    8.1345900000    9.6959200000
   5.3309000000   10.3104000000    8.4259800000
   7.4501400000    9.9450100000    7.2435800000
   9.2767800000    7.2627300000    9.2184200000
   7.2814200000    8.9384200000    9.3386000000
  11.0795000000    7.2373000000    9.5668900000
  12.2291000000    7.2764900000    9.3706000000
