Cu13 C1 O1 
1.0
1.5000000000000000e+01 0.0000000000000000e+00 0.0000000000000000e+00 
0.0000000000000000e+00 1.5000000000000000e+01 0.0000000000000000e+00 
0.0000000000000000e+00 0.0000000000000000e+00 1.5000000000000000e+01 
Cu C O 
13 1 1 
cartesian
   4.3677400000    6.2266500000    8.3649700000
   5.6157800000    8.1401800000    7.4251400000
   5.8904200000    4.4058500000    8.3821600000
   7.9998700000    7.5746000000    7.2269600000
   8.2174900000    5.2018500000    7.9877700000
   6.6985900000    6.5883700000    9.1924700000
   6.2537800000    6.0056400000    6.6149200000
   3.3547500000    8.4807700000    8.3017000000
   4.9888300000    8.1741800000    9.9127000000
   5.3047200000   10.2519000000    8.5130300000
   7.2863100000    9.9822000000    7.1000200000
   9.5063500000    7.3400100000    8.9681200000
   7.2770700000    8.9086900000    9.2522000000
  11.1048000000    7.3821300000    9.7658100000
  12.2184000000    7.4982000000   10.0169000000
