Cu13 C1 O1 
1.0
1.5000000000000000e+01 0.0000000000000000e+00 0.0000000000000000e+00 
0.0000000000000000e+00 1.5000000000000000e+01 0.0000000000000000e+00 
0.0000000000000000e+00 0.0000000000000000e+00 1.5000000000000000e+01 
Cu C O 
13 1 1 
cartesian
   4.3991800000    6.3427600000    8.2458300000
   5.5928000000    8.1946300000    7.3675700000
   5.8720800000    4.3245600000    8.3810200000
   8.0241500000    7.6608800000    7.2696600000
   8.3039800000    5.3334000000    7.8789600000
   6.7025800000    6.5056900000    9.1931500000
   6.2959000000    5.9950500000    6.7509500000
   3.4373200000    8.6581900000    8.1172500000
   5.1102900000    8.2024900000    9.8384400000
   5.2731300000   10.2010000000    8.5524700000
   7.2733800000    9.9541100000    7.1234500000
   9.1978200000    7.1344600000    9.2828500000
   7.3397800000    8.8344400000    9.2723200000
  10.9419000000    7.2478900000    9.7915600000
  12.0997000000    7.3573500000    9.8715100000
