Cu13 C1 O1 
1.0
1.5000000000000000e+01 0.0000000000000000e+00 0.0000000000000000e+00 
0.0000000000000000e+00 1.5000000000000000e+01 0.0000000000000000e+00 
0.0000000000000000e+00 0.0000000000000000e+00 1.5000000000000000e+01 
Cu C O 
13 1 1 
cartesian
   4.3705900000    6.2355000000    8.3929700000
   5.6210400000    8.2223300000    7.3806700000
   5.8712700000    4.3554100000    8.3528800000
   7.9854500000    7.6068800000    7.2368000000
   8.1927900000    5.2172100000    8.0183700000
   6.7136900000    6.5203800000    9.2176900000
   6.2717800000    5.9655300000    6.6398600000
   3.3820100000    8.5326600000    8.2276100000
   5.0152100000    8.2231400000    9.9464600000
   5.2995200000   10.2104000000    8.5234800000
   7.2842900000    9.9594500000    7.0830000000
   9.4500000000    7.3431200000    8.9720800000
   7.3110500000    8.8672100000    9.2257200000
  11.0865000000    7.4156500000    9.8498800000
  12.2045000000    7.5590100000   10.0515000000
