Cu13 C1 O1 
1.0
1.5000000000000000e+01 0.0000000000000000e+00 0.0000000000000000e+00 
0.0000000000000000e+00 1.5000000000000000e+01 0.0000000000000000e+00 
0.0000000000000000e+00 0.0000000000000000e+00 1.5000000000000000e+01 
Cu C O 
13 1 1 
cartesian
   4.3542600000    6.3112500000    8.3286700000
   5.6506300000    8.1899700000    7.4074700000
   5.9119500000    4.3826700000    8.4614600000
   8.0057700000    7.5963800000    7.1994600000
   8.2231800000    5.1875700000    7.9808000000
   6.6753700000    6.5281300000    9.2045900000
   6.2284700000    6.0175100000    6.6919200000
   3.4157400000    8.4690300000    8.2113200000
   5.0104300000    8.2026100000    9.8656700000
   5.3134100000   10.2738000000    8.5201700000
   7.2635000000    9.9849700000    7.0900400000
   9.4257300000    7.2574000000    9.1084100000
   7.2690400000    8.8931700000    9.2316000000
  11.1139000000    7.3683900000    9.6721500000
  12.2680000000    7.4546200000    9.8513300000
