Cu13 C1 O1 
1.0
1.5000000000000000e+01 0.0000000000000000e+00 0.0000000000000000e+00 
0.0000000000000000e+00 1.5000000000000000e+01 0.0000000000000000e+00 
0.0000000000000000e+00 0.0000000000000000e+00 1.5000000000000000e+01 
Cu C O 
13 1 1 
cartesian
   4.4203200000    6.4027900000    8.2242400000
   5.6631300000    8.2437300000    7.3507700000
   5.7776000000    4.3249400000    8.5179100000
   8.0586100000    7.5736300000    7.4007500000
   8.1837400000    5.1753400000    7.9156400000
   6.7819900000    6.4856900000    9.2640400000
   6.3100200000    5.9926500000    6.8204100000
   3.3656000000    8.6718300000    8.0647800000
   5.1091900000    8.2189600000    9.6624100000
   5.1499300000   10.3050000000    8.4962900000
   7.2854200000    9.8525800000    7.1004700000
   9.3531200000    7.0120300000    9.3253800000
   7.2859300000    8.9839600000    9.2616500000
  11.1520000000    7.3171600000    9.5507800000
  12.2510000000    7.6968600000    9.5327800000
