Cu13 C1 O1 
1.0
1.5000000000000000e+01 0.0000000000000000e+00 0.0000000000000000e+00 
0.0000000000000000e+00 1.5000000000000000e+01 0.0000000000000000e+00 
0.0000000000000000e+00 0.0000000000000000e+00 1.5000000000000000e+01 
Cu C O 
13 1 1 
cartesian
   4.3456700000    6.3118300000    8.2913600000
   5.6981200000    8.1929800000    7.3925300000
   5.9184000000    4.3200900000    8.4816500000
   8.0496500000    7.5948300000    7.2114900000
   8.2711000000    5.2168300000    7.9333800000
   6.7064100000    6.5496400000    9.1147400000
   6.2811000000    5.9141400000    6.8122000000
   3.3954100000    8.5924300000    8.1940800000
   5.0620500000    8.2102000000    9.7522800000
   5.2722400000   10.2826000000    8.5960300000
   7.3447400000   10.0638000000    7.1342900000
   9.1613700000    7.1244800000    9.2878700000
   7.3055800000    8.9472500000    9.2326300000
  10.9769000000    7.2568700000    9.5521000000
  12.1154000000    7.4326100000    9.4134700000
