Cu13 C1 O1 
1.0
1.5000000000000000e+01 0.0000000000000000e+00 0.0000000000000000e+00 
0.0000000000000000e+00 1.5000000000000000e+01 0.0000000000000000e+00 
0.0000000000000000e+00 0.0000000000000000e+00 1.5000000000000000e+01 
Cu C O 
13 1 1 
cartesian
   4.4004400000    6.2846700000    8.2649700000
   5.6553000000    8.1751800000    7.3547000000
   5.8678700000    4.3711600000    8.4137900000
   8.0135600000    7.6123800000    7.2922600000
   8.2828800000    5.2903700000    7.8976900000
   6.6656200000    6.5059900000    9.2021200000
   6.2968100000    6.0224900000    6.7289500000
   3.4269400000    8.6146300000    8.1481400000
   5.0418200000    8.2164600000    9.8764400000
   5.3038900000   10.1996000000    8.5305400000
   7.2674700000    9.9600100000    7.1663300000
   9.2721500000    7.1950800000    9.1978800000
   7.3137500000    8.8894200000    9.2377000000
  10.9782000000    7.2010500000    9.7472700000
  12.1278000000    7.4094500000    9.7554800000
