Cu13 C1 O1 
1.0
1.5000000000000000e+01 0.0000000000000000e+00 0.0000000000000000e+00 
0.0000000000000000e+00 1.5000000000000000e+01 0.0000000000000000e+00 
0.0000000000000000e+00 0.0000000000000000e+00 1.5000000000000000e+01 
Cu C O 
13 1 1 
cartesian
   4.3981300000    6.2865500000    8.5264500000
   5.5411600000    8.2794200000    7.3158100000
   5.9122900000    4.3460400000    8.4970100000
   7.9352300000    7.5807200000    7.1203600000
   8.1210500000    5.1580500000    7.8036000000
   6.7496600000    6.4757100000    9.2487800000
   6.1701100000    6.0372300000    6.7808300000
   3.2713400000    8.4121100000    8.4221900000
   5.1651000000    8.2672800000    9.7458900000
   5.3896800000   10.2948000000    8.6032200000
   7.3922600000    9.8752300000    7.1333000000
   9.4745600000    7.3658900000    8.7937500000
   7.2613400000    8.9307500000    9.2605800000
  11.0371000000    7.3672600000    9.8647900000
  12.1890000000    7.3947200000    9.9045800000
