Cu13 C1 O1 
1.0
1.5000000000000000e+01 0.0000000000000000e+00 0.0000000000000000e+00 
0.0000000000000000e+00 1.5000000000000000e+01 0.0000000000000000e+00 
0.0000000000000000e+00 0.0000000000000000e+00 1.5000000000000000e+01 
Cu C O 
13 1 1 
cartesian
   4.2473700000    6.1477400000    8.4338300000
   5.6071200000    8.2134400000    7.4915700000
   5.9751000000    4.3985200000    8.3282200000
   8.0166900000    7.6023900000    7.2536800000
   8.1937600000    5.2534100000    7.8283100000
   6.5913500000    6.4700300000    9.1124500000
   6.2832400000    6.0822600000    6.7396800000
   3.3755000000    8.5095000000    8.3490800000
   5.1034900000    8.0761400000    9.7898600000
   5.3367200000   10.2864000000    8.5227300000
   7.2971700000    9.9286800000    7.0501700000
   9.4540900000    7.4369600000    9.0763000000
   7.3040600000    8.7963400000    9.2210200000
  11.0603000000    7.4975700000    9.8958200000
  12.1567000000    7.7256100000   10.0992000000
