Cu13 C1 O1 
1.0
1.5000000000000000e+01 0.0000000000000000e+00 0.0000000000000000e+00 
0.0000000000000000e+00 1.5000000000000000e+01 0.0000000000000000e+00 
0.0000000000000000e+00 0.0000000000000000e+00 1.5000000000000000e+01 
Cu C O 
13 1 1 
cartesian
   4.3452100000    6.2661700000    8.3288000000
   5.6246700000    8.2081800000    7.3773900000
   5.9474800000    4.3917900000    8.4412400000
   8.0094300000    7.6155100000    7.1882900000
   8.2057500000    5.1878900000    7.9365200000
   6.6677800000    6.5443300000    9.2119000000
   6.2814500000    5.9830700000    6.6801000000
   3.3772200000    8.4976000000    8.2295200000
   4.9959900000    8.1699000000    9.8830100000
   5.3188000000   10.2787000000    8.5254900000
   7.3061900000   10.0015000000    7.1307200000
   9.3891200000    7.2421100000    9.1030100000
   7.2816300000    8.8849200000    9.2671800000
  11.0762000000    7.4944000000    9.7340300000
  12.2836000000    7.4503800000    9.7985700000
