Cu13 C1 O1 
1.0
1.5000000000000000e+01 0.0000000000000000e+00 0.0000000000000000e+00 
0.0000000000000000e+00 1.5000000000000000e+01 0.0000000000000000e+00 
0.0000000000000000e+00 0.0000000000000000e+00 1.5000000000000000e+01 
Cu C O 
13 1 1 
cartesian
   4.3234700000    6.3241900000    8.2726800000
   5.7218300000    8.2259900000    7.3760900000
   5.8966500000    4.3886400000    8.4497000000
   7.9834200000    7.5911800000    7.2050900000
   8.2923400000    5.1903400000    8.0302300000
   6.6578500000    6.5307200000    9.2328400000
   6.2352800000    5.9762400000    6.6172800000
   3.3896000000    8.5059300000    8.2568900000
   5.0770700000    8.2038000000    9.8871100000
   5.2704100000   10.3009000000    8.5358600000
   7.3164800000   10.0092000000    7.1066100000
   9.3623800000    7.2496800000    9.1676000000
   7.2232200000    8.8107400000    9.2302300000
  11.0983000000    7.3178100000    9.6527700000
  12.2698000000    7.4405600000    9.6013000000
