Cu13 C1 O1 
1.0
1.5000000000000000e+01 0.0000000000000000e+00 0.0000000000000000e+00 
0.0000000000000000e+00 1.5000000000000000e+01 0.0000000000000000e+00 
0.0000000000000000e+00 0.0000000000000000e+00 1.5000000000000000e+01 
Cu C O 
13 1 1 
cartesian
   4.4382900000    6.2509200000    8.4092100000
   5.6535100000    8.1428900000    7.4659700000
   5.9354600000    4.2926600000    8.3800000000
   8.0818100000    7.6935800000    7.1841000000
   8.1444000000    5.3035900000    7.8954400000
   6.6378000000    6.4597400000    9.1326200000
   6.1874900000    6.0008700000    6.5620100000
   3.4377100000    8.5919000000    8.2364400000
   5.0254000000    8.1165700000    9.8551100000
   5.2324400000   10.3316000000    8.6157200000
   7.3349900000   10.0486000000    7.1689200000
   9.4494700000    7.2356600000    9.0673000000
   7.2181500000    8.8707700000    9.2414500000
  11.0261000000    7.2752000000    9.9137700000
  12.2171000000    7.3459000000   10.0166000000
