Cu13 C1 O1 
1.0
1.5000000000000000e+01 0.0000000000000000e+00 0.0000000000000000e+00 
0.0000000000000000e+00 1.5000000000000000e+01 0.0000000000000000e+00 
0.0000000000000000e+00 0.0000000000000000e+00 1.5000000000000000e+01 
Cu C O 
13 1 1 
cartesian
   4.4133800000    6.3371700000    8.3250500000
   5.6269100000    8.2659700000    7.3312200000
   5.9349100000    4.4014200000    8.4490200000
   8.0430500000    7.5924600000    7.2216900000
   8.2257400000    5.1890900000    7.9057000000
   6.6879800000    6.5222700000    9.2332700000
   6.3095700000    5.9978900000    6.7551500000
   3.4371100000    8.5202700000    8.1747100000
   5.0363600000    8.1430100000    9.7721800000
   5.2993900000   10.2183000000    8.5570500000
   7.2916800000   10.0435000000    7.1545500000
   9.1841100000    7.1737100000    9.1992700000
   7.2990800000    8.9121300000    9.2785100000
  11.0140000000    7.4092800000    9.6962300000
  12.1772000000    7.3332200000    9.6116500000
