Cu13 C1 O1 
1.0
1.5000000000000000e+01 0.0000000000000000e+00 0.0000000000000000e+00 
0.0000000000000000e+00 1.5000000000000000e+01 0.0000000000000000e+00 
0.0000000000000000e+00 0.0000000000000000e+00 1.5000000000000000e+01 
Cu C O 
13 1 1 
cartesian
   4.3539400000    6.2529200000    8.2926000000
   5.6152300000    8.2765100000    7.4101700000
   5.9736500000    4.2679200000    8.3944600000
   7.9954000000    7.6294300000    7.2621700000
   8.2409400000    5.2212500000    7.8389400000
   6.7542900000    6.5027000000    9.1222600000
   6.1945400000    6.0489200000    6.8122500000
   3.3677500000    8.6558900000    8.2631000000
   5.1280200000    8.0680200000    9.7705700000
   5.2349500000   10.3358000000    8.6097500000
   7.3535300000   10.1474000000    7.1497400000
   9.2455100000    7.0806800000    9.2232600000
   7.3107100000    8.9027400000    9.2200900000
  11.0614000000    7.1853100000    9.5848000000
  12.2242000000    7.2116400000    9.6477100000
