Cu13 C1 O1 
1.0
1.5000000000000000e+01 0.0000000000000000e+00 0.0000000000000000e+00 
0.0000000000000000e+00 1.5000000000000000e+01 0.0000000000000000e+00 
0.0000000000000000e+00 0.0000000000000000e+00 1.5000000000000000e+01 
Cu C O 
13 1 1 
cartesian
   4.4209700000    6.2855400000    8.4211800000
   5.5295600000    8.1896700000    7.4273700000
   5.9339700000    4.3600700000    8.4155800000
   7.9399100000    7.5603300000    7.1647800000
   8.2360700000    5.2328900000    8.0083600000
   6.6946800000    6.5917200000    9.1341600000
   6.2719800000    6.0411300000    6.6145700000
   3.3381400000    8.4359400000    8.3353600000
   5.0063800000    8.1363600000    9.9945000000
   5.2060500000   10.1650000000    8.5190200000
   7.2265100000    9.9674700000    7.0959600000
   9.5946900000    7.3392500000    8.8780800000
   7.3169300000    8.8961900000    9.1834700000
  11.2569000000    7.5130000000    9.7508600000
  12.2864000000    7.7150600000   10.2258000000
