Cu13 C1 O1 
1.0
1.5000000000000000e+01 0.0000000000000000e+00 0.0000000000000000e+00 
0.0000000000000000e+00 1.5000000000000000e+01 0.0000000000000000e+00 
0.0000000000000000e+00 0.0000000000000000e+00 1.5000000000000000e+01 
Cu C O 
13 1 1 
cartesian
   4.3524700000    6.2320600000    8.3450800000
   5.6425100000    8.1914500000    7.3559800000
   5.9025100000    4.3605600000    8.3786600000
   8.0323900000    7.5926800000    7.1891900000
   8.1950400000    5.2243200000    8.0172400000
   6.6800900000    6.5156300000    9.1810900000
   6.3113200000    5.9725500000    6.6845000000
   3.3543200000    8.5400200000    8.2130100000
   5.0040400000    8.2086200000    9.9267000000
   5.2683400000   10.2670000000    8.5477700000
   7.3049500000    9.9881200000    7.0888500000
   9.4613600000    7.3107300000    9.0308000000
   7.2260400000    8.8492600000    9.2929600000
  11.1447000000    7.5261300000    9.7982800000
  12.2931000000    7.5008900000    9.9541700000
