Cu13 C1 O1 
1.0
1.5000000000000000e+01 0.0000000000000000e+00 0.0000000000000000e+00 
0.0000000000000000e+00 1.5000000000000000e+01 0.0000000000000000e+00 
0.0000000000000000e+00 0.0000000000000000e+00 1.5000000000000000e+01 
Cu C O 
13 1 1 
cartesian
   4.3780300000    6.3337500000    8.2775200000
   5.6774700000    8.2653100000    7.3735400000
   5.9327600000    4.3814800000    8.4768700000
   8.0086200000    7.6186200000    7.2013200000
   8.2533100000    5.1757900000    7.9788300000
   6.7352400000    6.5402700000    9.1809800000
   6.2428500000    5.9448400000    6.7070500000
   3.3916900000    8.5522700000    8.1724200000
   5.0302400000    8.1714800000    9.7910100000
   5.2658500000   10.2632000000    8.5706800000
   7.3158600000   10.0051000000    7.1782200000
   9.2472100000    7.1784100000    9.2144000000
   7.3103200000    8.8887900000    9.2564000000
  11.0200000000    7.3486900000    9.6276900000
  12.1719000000    7.3706600000    9.5762600000
