Cu13 C1 O1 
1.0
1.5000000000000000e+01 0.0000000000000000e+00 0.0000000000000000e+00 
0.0000000000000000e+00 1.5000000000000000e+01 0.0000000000000000e+00 
0.0000000000000000e+00 0.0000000000000000e+00 1.5000000000000000e+01 
Cu C O 
13 1 1 
cartesian
   4.3912900000    6.2798200000    8.3087100000
   5.6385000000    8.1984200000    7.3744900000
   5.9424900000    4.3968500000    8.4585800000
   7.9689200000    7.5924200000    7.1754000000
   8.1879700000    5.2399100000    7.9748900000
   6.7160000000    6.5148100000    9.1806800000
   6.2843700000    5.9863500000    6.6430900000
   3.4363400000    8.5363400000    8.2156200000
   5.0168600000    8.1690200000    9.8295300000
   5.2750000000   10.2350000000    8.4995400000
   7.2484500000    9.9774100000    7.1869800000
   9.3606900000    7.2603900000    9.1680400000
   7.3062200000    8.8922100000    9.2884500000
  11.0497000000    7.3698600000    9.7910100000
  12.2146000000    7.5149200000    9.7525300000
